1	1
2	7
3	1
4	2
5	2
6	7
7	7
8	7
9	2
10	4
11	1
12	2
13	1
14	4
15	1
16	2
17	2
18	7
19	2
20	7
21	1
22	2
23	4
24	2
25	2
26	4
27	7
28	7
29	1
30	2
31	1
32	4
33	6
34	1
35	1
36	2
37	2
38	1
39	1
40	3
41	2
42	7
43	1
44	1
45	2
46	2
47	1
48	1
49	7
50	1
51	1
52	2
53	2
54	1
55	4
56	2
57	4
58	4
59	1
60	2
61	5
62	2
